experiment/data/lkh-res/Vrp-Set-X-n153/Vrp-Set-X-n153-lkh/0.lkh1.vrp
NAME : 0
COMMENT : CVRP Instance
TYPE : CVRP
DIMENSION : 153
EDGE_WEIGHT_TYPE : EUC_2D
CAPACITY : 144
NODE_COORD_SECTION
1	50000	50000
2	23800	44600
3	74900	75000
4	96000	87900
5	95500	86600
6	20200	33600
7	72000	78800
8	69500	74300
9	73900	60300
10	21700	41900
11	92200	87000
12	70300	73300
13	84300	85600
14	23300	68200
15	25900	45900
16	22600	30500
17	73200	72200
18	74700	85800
19	94900	78400
20	90400	89100
21	88000	79500
22	59100	66100
23	98400	92600
24	24600	43800
25	18300	50100
26	54600	96600
27	74200	77100
28	11000	69800
29	19300	44100
30	21500	38800
31	23200	51600
32	90700	95400
33	13300	52600
34	75000	68000
35	39700	55300
36	10300	48800
37	66300	73100
38	78400	68600
39	75400	82100
40	28000	45600
41	23600	42400
42	28700	45400
43	59800	72800
44	99600	82100
45	85300	71000
46	74400	47300
47	88700	90700
48	28600	42200
49	85700	63300
50	27200	48400
51	93400	62500
52	93900	89200
53	81000	73200
54	63100	72300
55	82200	69400
56	76900	76800
57	97700	84000
58	63900	73600
59	72700	76500
60	95000	89600
61	20600	43300
62	20700	53500
63	16400	58600
64	75400	69100
65	66200	76800
66	34800	30800
67	25400	45500
68	13000	48200
69	76400	72600
70	71300	75800
71	96500	93400
72	69300	73400
73	89000	80100
74	80800	67500
75	39300	48400
76	72700	80800
77	95500	75600
78	85400	64000
79	24900	55200
80	18800	47900
81	18700	50600
82	90100	76700
83	66400	77000
84	55800	53000
85	71400	74200
86	97900	68300
87	20000	41600
88	29400	39100
89	34400	47100
90	24000	44900
91	73500	63300
92	94400	95200
93	15700	42100
94	76800	75000
95	81300	93600
96	53400	72000
97	98600	91400
98	96300	79800
99	90500	57900
100	17500	39700
101	97200	94000
102	18400	56100
103	35700	39900
104	85900	77000
105	66100	76200
106	29800	46900
107	1400	43800
108	27500	56100
109	85600	91900
110	21900	45300
111	27200	46500
112	29400	29600
113	75400	77500
114	22900	46700
115	94600	77800
116	71100	80300
117	85800	87900
118	66500	34700
119	98100	80200
120	92400	97300
121	26700	54500
122	76000	76400
123	94200	89400
124	21900	46500
125	66500	75600
126	9200	21200
127	92000	94000
128	93700	81400
129	80400	65400
130	28100	48900
131	66900	64700
132	30800	30900
133	99800	87600
134	90000	91000
135	75300	90000
136	87300	70600
137	20900	46700
138	99100	96600
139	76600	72900
140	34100	45800
141	89700	95700
142	22400	36800
143	81800	67900
144	70700	70300
145	28000	45000
146	25200	46200
147	71700	68300
148	45800	23600
149	98900	48900
150	27800	35600
151	14400	44600
152	99100	81800
153	83100	81200
DEMAND_SECTION
1	0
2	92
3	90
4	65
5	80
6	69
7	64
8	73
9	96
10	74
11	81
12	67
13	58
14	79
15	85
16	57
17	90
18	84
19	84
20	92
21	87
22	95
23	66
24	86
25	90
26	94
27	84
28	98
29	65
30	68
31	73
32	51
33	6
34	7
35	6
36	3
37	2
38	3
39	7
40	2
41	9
42	1
43	6
44	4
45	8
46	2
47	8
48	5
49	9
50	2
51	1
52	3
53	9
54	8
55	9
56	6
57	1
58	4
59	8
60	3
61	5
62	3
63	2
64	4
65	10
66	4
67	7
68	8
69	9
70	8
71	4
72	8
73	5
74	1
75	9
76	5
77	6
78	9
79	3
80	3
81	8
82	6
83	9
84	4
85	3
86	5
87	9
88	5
89	2
90	4
91	4
92	8
93	10
94	4
95	5
96	2
97	3
98	1
99	3
100	1
101	10
102	1
103	7
104	5
105	1
106	7
107	8
108	10
109	9
110	1
111	4
112	7
113	6
114	2
115	4
116	5
117	2
118	1
119	5
120	6
121	3
122	2
123	7
124	9
125	1
126	1
127	5
128	8
129	8
130	2
131	7
132	5
133	9
134	5
135	8
136	5
137	9
138	1
139	6
140	1
141	9
142	9
143	3
144	1
145	8
146	2
147	8
148	8
149	10
150	9
151	1
152	1
153	8
DEPOT_SECTION
1
-1
EOF
