experiment/data/lkh-res/Vrp-Set-X-n153/Vrp-Set-X-n153-lkh/0.lkh1.log
PARAMETER_FILE = baseline_results/cvrp_lkh/Vrp-Set-X-n153/Vrp-Set-X-n153-lkh/0.lkh1.par
Reading PROBLEM_FILE: "baseline_results/cvrp_lkh/Vrp-Set-X-n153/Vrp-Set-X-n153-lkh/0.lkh1.vrp" ... done
ASCENT_CANDIDATES = 50
BACKBONE_TRIALS = 0
BACKTRACKING = NO
# BWTSP =
# CANDIDATE_FILE =
CANDIDATE_SET_TYPE = ALPHA
# DISTANCE =
DEPOT = 1
# EDGE_FILE =
EXCESS = 0.00653595
EXTERNAL_SALESMEN = 0
EXTRA_CANDIDATES = 0 
EXTRA_CANDIDATE_SET_TYPE = QUADRANT
GAIN23 = NO
GAIN_CRITERION = YES
INITIAL_PERIOD = 100
INITIAL_STEP_SIZE = 1
INITIAL_TOUR_ALGORITHM = WALK
# INITIAL_TOUR_FILE = 
INITIAL_TOUR_FRACTION = 1.000
# INPUT_TOUR_FILE = 
KICK_TYPE = 4
KICKS = 1
# MAX_BREADTH =
MAKESPAN = NO
MAX_CANDIDATES = 5 
MAX_SWAPS = 0
MAX_TRIALS = 10000
# MERGE_TOUR_FILE =
MOVE_TYPE = 5 SPECIAL
MTSP_MIN_SIZE = 1
MTSP_MAX_SIZE = 152
# MTSP_SOLUTION_FILE = 
# NONSEQUENTIAL_MOVE_TYPE = 5
# OPTIMUM =
OUTPUT_TOUR_FILE = baseline_results/cvrp_lkh/Vrp-Set-X-n153/Vrp-Set-X-n153-lkh/0.lkh1.tour
PATCHING_A = 1 
PATCHING_C = 0 
# PI_FILE = 
POPMUSIC_INITIAL_TOUR = NO
POPMUSIC_MAX_NEIGHBORS = 5
POPMUSIC_SAMPLE_SIZE = 10
POPMUSIC_SOLUTIONS = 50
POPMUSIC_TRIALS = 1
POPULATION_SIZE = 10
PRECISION = 100
PROBLEM_FILE = baseline_results/cvrp_lkh/Vrp-Set-X-n153/Vrp-Set-X-n153-lkh/0.lkh1.vrp
RECOMBINATION = IPT
RESTRICTED_SEARCH = YES
RUNS = 1
SALESMEN = 22
SCALE = 1
SEED = 1234
# SINTEF_SOLUTION_FILE = 
STOP_AT_OPTIMUM = YES
SUBGRADIENT = YES
# SUBPROBLEM_SIZE =
# SUBPROBLEM_TOUR_FILE = 
SUBSEQUENT_MOVE_TYPE = 5 SPECIAL
SUBSEQUENT_PATCHING = YES
# TIME_LIMIT =
# TOTAL_TIME_LIMIT =
# TOUR_FILE = 
TRACE_LEVEL = 1
VEHICLES = 22

Lower bound = 1361173.9, Ascent time = 0.03 sec.
Cand.min = 5, Cand.avg = 5.0, Cand.max = 5
Preprocessing time = 0.03 sec.
* 1: Cost = 4_2355312, Time = 0.12 sec. 
* 3: Cost = 1_2228293, Time = 0.33 sec. 
* 4: Cost = 1_2199295, Time = 0.39 sec. 
* 5: Cost = 1_2199071, Time = 0.41 sec. 
* 8: Cost = 1_2192023, Time = 0.48 sec. 
* 12: Cost = 1_2186149, Time = 0.61 sec. 
* 13: Cost = 0_2196394, Time = 0.66 sec. 
Writing OUTPUT_TOUR_FILE: "baseline_results/cvrp_lkh/Vrp-Set-X-n153/Vrp-Set-X-n153-lkh/0.lkh1.tour" ... done
* 15: Cost = 0_2193648, Time = 0.69 sec. 
Writing OUTPUT_TOUR_FILE: "baseline_results/cvrp_lkh/Vrp-Set-X-n153/Vrp-Set-X-n153-lkh/0.lkh1.tour" ... done
* 18: Cost = 0_2183533, Time = 0.70 sec. 
Writing OUTPUT_TOUR_FILE: "baseline_results/cvrp_lkh/Vrp-Set-X-n153/Vrp-Set-X-n153-lkh/0.lkh1.tour" ... done
* 22: Cost = 0_2183115, Time = 0.74 sec. 
Writing OUTPUT_TOUR_FILE: "baseline_results/cvrp_lkh/Vrp-Set-X-n153/Vrp-Set-X-n153-lkh/0.lkh1.tour" ... done
* 30: Cost = 0_2181829, Time = 0.83 sec. 
Writing OUTPUT_TOUR_FILE: "baseline_results/cvrp_lkh/Vrp-Set-X-n153/Vrp-Set-X-n153-lkh/0.lkh1.tour" ... done
* 31: Cost = 0_2181741, Time = 0.83 sec. 
Writing OUTPUT_TOUR_FILE: "baseline_results/cvrp_lkh/Vrp-Set-X-n153/Vrp-Set-X-n153-lkh/0.lkh1.tour" ... done
* 56: Cost = 0_2174798, Time = 1.51 sec. 
Writing OUTPUT_TOUR_FILE: "baseline_results/cvrp_lkh/Vrp-Set-X-n153/Vrp-Set-X-n153-lkh/0.lkh1.tour" ... done
* 65: Cost = 0_2173827, Time = 1.71 sec. 
Writing OUTPUT_TOUR_FILE: "baseline_results/cvrp_lkh/Vrp-Set-X-n153/Vrp-Set-X-n153-lkh/0.lkh1.tour" ... done
* 68: Cost = 0_2173811, Time = 1.72 sec. 
Writing OUTPUT_TOUR_FILE: "baseline_results/cvrp_lkh/Vrp-Set-X-n153/Vrp-Set-X-n153-lkh/0.lkh1.tour" ... done
* 71: Cost = 0_2172870, Time = 1.78 sec. 
Writing OUTPUT_TOUR_FILE: "baseline_results/cvrp_lkh/Vrp-Set-X-n153/Vrp-Set-X-n153-lkh/0.lkh1.tour" ... done
* 74: Cost = 0_2172832, Time = 1.80 sec. 
Writing OUTPUT_TOUR_FILE: "baseline_results/cvrp_lkh/Vrp-Set-X-n153/Vrp-Set-X-n153-lkh/0.lkh1.tour" ... done
* 82: Cost = 0_2172825, Time = 1.97 sec. 
Writing OUTPUT_TOUR_FILE: "baseline_results/cvrp_lkh/Vrp-Set-X-n153/Vrp-Set-X-n153-lkh/0.lkh1.tour" ... done
* 119: Cost = 0_2169762, Time = 2.56 sec. 
Writing OUTPUT_TOUR_FILE: "baseline_results/cvrp_lkh/Vrp-Set-X-n153/Vrp-Set-X-n153-lkh/0.lkh1.tour" ... done
* 127: Cost = 0_2168682, Time = 2.64 sec. 
Writing OUTPUT_TOUR_FILE: "baseline_results/cvrp_lkh/Vrp-Set-X-n153/Vrp-Set-X-n153-lkh/0.lkh1.tour" ... done
* 129: Cost = 0_2167636, Time = 2.67 sec. 
Writing OUTPUT_TOUR_FILE: "baseline_results/cvrp_lkh/Vrp-Set-X-n153/Vrp-Set-X-n153-lkh/0.lkh1.tour" ... done
* 131: Cost = 0_2166402, Time = 2.75 sec. 
Writing OUTPUT_TOUR_FILE: "baseline_results/cvrp_lkh/Vrp-Set-X-n153/Vrp-Set-X-n153-lkh/0.lkh1.tour" ... done
* 134: Cost = 0_2166299, Time = 2.96 sec. 
Writing OUTPUT_TOUR_FILE: "baseline_results/cvrp_lkh/Vrp-Set-X-n153/Vrp-Set-X-n153-lkh/0.lkh1.tour" ... done
* 136: Cost = 0_2166265, Time = 2.99 sec. 
Writing OUTPUT_TOUR_FILE: "baseline_results/cvrp_lkh/Vrp-Set-X-n153/Vrp-Set-X-n153-lkh/0.lkh1.tour" ... done
* 169: Cost = 0_2165599, Time = 3.56 sec. 
Writing OUTPUT_TOUR_FILE: "baseline_results/cvrp_lkh/Vrp-Set-X-n153/Vrp-Set-X-n153-lkh/0.lkh1.tour" ... done
* 170: Cost = 0_2165244, Time = 3.57 sec. 
Writing OUTPUT_TOUR_FILE: "baseline_results/cvrp_lkh/Vrp-Set-X-n153/Vrp-Set-X-n153-lkh/0.lkh1.tour" ... done
* 171: Cost = 0_2164423, Time = 3.57 sec. 
Writing OUTPUT_TOUR_FILE: "baseline_results/cvrp_lkh/Vrp-Set-X-n153/Vrp-Set-X-n153-lkh/0.lkh1.tour" ... done
* 174: Cost = 0_2164418, Time = 3.60 sec. 
Writing OUTPUT_TOUR_FILE: "baseline_results/cvrp_lkh/Vrp-Set-X-n153/Vrp-Set-X-n153-lkh/0.lkh1.tour" ... done
* 175: Cost = 0_2164260, Time = 3.61 sec. 
Writing OUTPUT_TOUR_FILE: "baseline_results/cvrp_lkh/Vrp-Set-X-n153/Vrp-Set-X-n153-lkh/0.lkh1.tour" ... done
* 294: Cost = 0_2162188, Time = 6.15 sec. 
Writing OUTPUT_TOUR_FILE: "baseline_results/cvrp_lkh/Vrp-Set-X-n153/Vrp-Set-X-n153-lkh/0.lkh1.tour" ... done
* 300: Cost = 0_2161143, Time = 6.39 sec. 
Writing OUTPUT_TOUR_FILE: "baseline_results/cvrp_lkh/Vrp-Set-X-n153/Vrp-Set-X-n153-lkh/0.lkh1.tour" ... done
* 302: Cost = 0_2161096, Time = 6.41 sec. 
Writing OUTPUT_TOUR_FILE: "baseline_results/cvrp_lkh/Vrp-Set-X-n153/Vrp-Set-X-n153-lkh/0.lkh1.tour" ... done
* 317: Cost = 0_2160007, Time = 6.60 sec. 
Writing OUTPUT_TOUR_FILE: "baseline_results/cvrp_lkh/Vrp-Set-X-n153/Vrp-Set-X-n153-lkh/0.lkh1.tour" ... done
* 319: Cost = 0_2156587, Time = 6.71 sec. 
Writing OUTPUT_TOUR_FILE: "baseline_results/cvrp_lkh/Vrp-Set-X-n153/Vrp-Set-X-n153-lkh/0.lkh1.tour" ... done
* 322: Cost = 0_2155200, Time = 6.72 sec. 
Writing OUTPUT_TOUR_FILE: "baseline_results/cvrp_lkh/Vrp-Set-X-n153/Vrp-Set-X-n153-lkh/0.lkh1.tour" ... done
* 326: Cost = 0_2155109, Time = 6.75 sec. 
Writing OUTPUT_TOUR_FILE: "baseline_results/cvrp_lkh/Vrp-Set-X-n153/Vrp-Set-X-n153-lkh/0.lkh1.tour" ... done
* 332: Cost = 0_2154450, Time = 6.89 sec. 
Writing OUTPUT_TOUR_FILE: "baseline_results/cvrp_lkh/Vrp-Set-X-n153/Vrp-Set-X-n153-lkh/0.lkh1.tour" ... done
* 353: Cost = 0_2154449, Time = 7.33 sec. 
Writing OUTPUT_TOUR_FILE: "baseline_results/cvrp_lkh/Vrp-Set-X-n153/Vrp-Set-X-n153-lkh/0.lkh1.tour" ... done
* 380: Cost = 0_2153606, Time = 7.60 sec. 
Writing OUTPUT_TOUR_FILE: "baseline_results/cvrp_lkh/Vrp-Set-X-n153/Vrp-Set-X-n153-lkh/0.lkh1.tour" ... done
* 430: Cost = 0_2153580, Time = 8.41 sec. 
Writing OUTPUT_TOUR_FILE: "baseline_results/cvrp_lkh/Vrp-Set-X-n153/Vrp-Set-X-n153-lkh/0.lkh1.tour" ... done
* 516: Cost = 0_2153266, Time = 10.23 sec. 
Writing OUTPUT_TOUR_FILE: "baseline_results/cvrp_lkh/Vrp-Set-X-n153/Vrp-Set-X-n153-lkh/0.lkh1.tour" ... done
* 757: Cost = 0_2152697, Time = 16.07 sec. 
Writing OUTPUT_TOUR_FILE: "baseline_results/cvrp_lkh/Vrp-Set-X-n153/Vrp-Set-X-n153-lkh/0.lkh1.tour" ... done
* 758: Cost = 0_2152676, Time = 16.07 sec. 
Writing OUTPUT_TOUR_FILE: "baseline_results/cvrp_lkh/Vrp-Set-X-n153/Vrp-Set-X-n153-lkh/0.lkh1.tour" ... done
* 2322: Cost = 0_2151856, Time = 50.22 sec. 
Writing OUTPUT_TOUR_FILE: "baseline_results/cvrp_lkh/Vrp-Set-X-n153/Vrp-Set-X-n153-lkh/0.lkh1.tour" ... done
* 3346: Cost = 0_2151759, Time = 73.51 sec. 
Writing OUTPUT_TOUR_FILE: "baseline_results/cvrp_lkh/Vrp-Set-X-n153/Vrp-Set-X-n153-lkh/0.lkh1.tour" ... done
* 3377: Cost = 0_2151718, Time = 74.24 sec. 
Writing OUTPUT_TOUR_FILE: "baseline_results/cvrp_lkh/Vrp-Set-X-n153/Vrp-Set-X-n153-lkh/0.lkh1.tour" ... done
* 6755: Cost = 0_2151229, Time = 156.75 sec. 
Writing OUTPUT_TOUR_FILE: "baseline_results/cvrp_lkh/Vrp-Set-X-n153/Vrp-Set-X-n153-lkh/0.lkh1.tour" ... done
* 7723: Cost = 0_2150618, Time = 178.75 sec. 
Writing OUTPUT_TOUR_FILE: "baseline_results/cvrp_lkh/Vrp-Set-X-n153/Vrp-Set-X-n153-lkh/0.lkh1.tour" ... done
* 7745: Cost = 0_2150535, Time = 179.30 sec. 
Writing OUTPUT_TOUR_FILE: "baseline_results/cvrp_lkh/Vrp-Set-X-n153/Vrp-Set-X-n153-lkh/0.lkh1.tour" ... done
Population:
  1: 0_2150535
Run 1: Cost = 0_2150535, Time = 228.51 sec. 

Successes/Runs = 0/1 
Cost.min = 2150535, Cost.avg = 2150535.00, Cost.max = 2150535
Gap.min = 0.0000%, Gap.avg = 0.0000%, Gap.max = 0.0000%
Penalty.min = 0, Penalty.avg = 0.00, Penalty.max = 0
Trials.min = 10000, Trials.avg = 10000.0, Trials.max = 10000
Time.min = 228.51 sec., Time.avg = 228.51 sec., Time.max = 228.51 sec.
Time.total = 228.54 sec.
  Size.min = 1, Size.max = 15, Penalty = 0
  Cost.min = 36988, Cost.max = 151338, Cost.sum = 2150535
Best CVRP solution:
  Cost = 0_2150535

