experiment/data/lkh-res/Vrp-Set-X-n153/Vrp-Set-X-n153-lkh/0.lkh1.tour
NAME : 0.2150535.tour
COMMENT : Length = 2150535
COMMENT : Found by LKH-3 [Keld Helsgaun] Tue Apr  9 03:27:23 2024
TYPE : TOUR
DIMENSION : 174
TOUR_SECTION
1
34
64
53
21
82
136
45
78
49
165
29
14
173
121
79
102
63
28
33
68
36
107
151
93
100
160
4
23
97
133
57
156
5
7
174
104
73
128
44
152
119
98
19
115
77
86
51
99
149
46
172
37
76
39
117
20
47
109
95
135
116
125
168
43
54
58
105
65
83
26
96
162
130
50
146
124
137
80
25
81
62
108
35
155
89
40
67
90
2
41
61
87
142
48
167
30
110
114
31
170
16
126
24
171
9
118
148
66
132
112
150
88
103
157
140
10
6
159
22
158
8
12
169
27
13
122
166
18
141
32
154
75
106
111
15
145
42
161
153
134
127
120
92
138
101
71
60
123
52
11
38
164
72
85
70
59
113
56
94
3
144
131
163
147
17
69
139
55
143
74
129
91
84
-1
EOF
